phonon ph.x
&inputph
  tr2_ph = 1.0d-14
  prefix = 'GaN'
  outdir = 'out_GaN'
  fildyn = 'GaN.dyn'
  ldisp  = .true.
  nq1    = 4
  nq2    = 4
  nq3    = 4
/

