&input
  fildyn = 'GaN.dyn'
  flfrc  = 'GaN.fc'
/

